7791917.0
2869
0 2 3 5 6 8 9 10 11 12 13 16 17 18 20 21 22 23 25 26 27 28 29 31 32 33 34 39 41 42 43 44 45 46 47 49 50 52 53 54 55 56 57 58 59 60 61 63 64 65 67 68 69 70 71 72 73 74 75 76 77 78 79 80 81 83 84 86 87 88 90 91 92 93 95 98 99 100 101 102 103 104 105 106 107 108 109 111 113 114 116 117 118 119 120 121 123 124 125 126 128 129 130 131 132 133 134 136 139 140 141 142 143 144 145 146 147 148 149 150 152 154 155 156 157 158 159 161 163 165 166 167 168 169 170 171 173 174 175 177 180 182 183 184 185 186 187 189 190 191 193 194 196 197 198 